p cnf 14 64
-1 -3 -8 0
-6 11 -12 0
-3 8 12 0
2 -8 -10 0
-3 -9 12 0
-5 8 -10 0
-5 -6 -13 0
6 -7 -8 0
-5 -10 -11 0
-7 11 -12 0
-2 -4 5 0
-1 -4 6 0
-3 7 -10 0
-4 6 -8 0
7 9 12 0
1 8 -10 0
1 2 10 0
1 6 9 0
2 -7 11 0
-1 5 -7 0
-8 12 13 0
-3 5 9 0
3 -7 -12 0
-1 -2 9 0
6 -11 -14 0
7 -10 -13 0
-4 -7 13 0
-1 -3 -10 0
-2 -8 9 0
2 -6 -12 0
2 8 -12 0
-6 -11 14 0
-3 5 -8 0
2 -4 -9 0
-3 5 -13 0
-4 -6 -12 0
-9 -11 13 0
-5 9 -13 0
4 -9 -12 0
1 -10 -14 0
5 -6 -10 0
-1 3 -11 0
6 7 13 0
1 8 9 0
-2 -3 7 0
4 -5 -9 0
3 5 -11 0
2 7 8 0
4 -12 -14 0
-5 10 -13 0
-2 -3 -4 0
1 -10 11 0
5 6 -9 0
-2 -4 11 0
-4 6 -7 0
4 -7 12 0
-3 7 -14 0
11 13 -14 0
-3 4 13 0
6 10 14 0
-5 -12 -14 0
5 10 13 0
3 5 -10 0
9 -11 12 0
